c This is a CNF SAT formula in the DIMACS CNF format,
c produced with the bc2cnf translator by Tommi Junttila;
c see http://users.ics.aalto.fi/tjunttil/circuits/index.html
c ans <-> 1
c s3 <-> 2
c g3_0 <-> 3
c i3 <-> 4
c p3_2 <-> 5
c g3_2 <-> 6
c g1_0 <-> 7
c i2 <-> 8
c nr1a <-> 9
c i1 <-> 9
c xr4 <-> 10
c p4 <-> 10
c xr3 <-> 11
c p3 <-> 11
c xr2 <-> 12
c p2 <-> 12
c xr1 <-> 13
c p1 <-> 13
c nr3b <-> 14
c g3 <-> 14
c nr2b <-> 15
c g2 <-> 15
c nr1b <-> 16
c g1 <-> 16
c srip <-> 17
c nr3c <-> 18
c nr3a <-> 19
c nr2c <-> 20
c nr2a <-> 21
c nr1c <-> 22
c A4 <-> 23
c A3 <-> 24
c A2 <-> 25
c A1 <-> 26
c xb4 <-> 27
c B4 <-> 28
c xb3 <-> 29
c B3 <-> 30
c xb2 <-> 31
c B2 <-> 32
c xb1 <-> 33
c op0 <-> 34
c B1 <-> 35
p cnf 35 89
1 17 -2 0
1 -17 2 0
-1 17 2 0
-1 -17 -2 0
2 10 -3 0
2 -10 3 0
-2 10 3 0
-2 -10 -3 0
3 -4 0
3 -6 0
-3 6 4 0
-4 5 0
-4 7 0
4 -7 -5 0
-5 11 0
-5 12 0
5 -12 -11 0
6 -8 0
6 -14 0
-6 14 8 0
7 -9 0
7 -16 0
-7 16 9 0
-8 11 0
-8 15 0
8 -15 -11 0
-9 13 0
-9 34 0
9 -34 -13 0
10 27 -23 0
10 -27 23 0
-10 27 23 0
-10 -27 -23 0
11 29 -24 0
11 -29 24 0
-11 29 24 0
-11 -29 -24 0
12 31 -25 0
12 -31 25 0
-12 31 25 0
-12 -31 -25 0
13 33 -26 0
13 -33 26 0
-13 33 26 0
-13 -33 -26 0
-14 24 0
-14 29 0
14 -29 -24 0
-15 25 0
-15 31 0
15 -31 -25 0
-16 26 0
-16 33 0
16 -33 -26 0
17 -18 -10 0
17 18 10 0
-17 -18 10 0
-17 18 -10 0
-18 -14 0
-18 -19 0
18 19 14 0
-19 11 0
-19 -20 0
19 20 -11 0
-20 -15 0
-20 -21 0
20 21 15 0
-21 12 0
-21 -22 0
21 22 -12 0
-22 -16 0
-22 -9 0
22 9 16 0
27 34 -28 0
27 -34 28 0
-27 34 28 0
-27 -34 -28 0
29 34 -30 0
29 -34 30 0
-29 34 30 0
-29 -34 -30 0
31 34 -32 0
31 -34 32 0
-31 34 32 0
-31 -34 -32 0
33 35 -34 0
33 -35 34 0
-33 35 34 0
-33 -35 -34 0
1 0
